(set-logic ALL)
(declare-const x String)
(declare-const y String)
(assert (str.in_re x (re.* (str.to_re "<o"))))
(assert (str.in_re x (re.+ (str.to_re ".&T<P"))))
(assert (str.in_re x (re.+ (str.to_re "<P#d"))))
(check-sat)
